Version identifier: 20.1.0.0 | 2020-11-10 | 9bedb6d68
Tried aggregator 3 times.
MIP Presolve eliminated 1343 rows and 668 columns.
MIP Presolve modified 3134 coefficients.
Aggregator did 130 substitutions.
Reduced MIP has 1736 rows, 1417 columns, and 5664 nonzeros.
Reduced MIP has 264 binaries, 1153 generals, 0 SOSs, and 0 indicators.
Presolve time = 0.02 sec. (8.44 ticks)
Found incumbent of value 2756.000000 after 0.04 sec. (15.47 ticks)
Probing fixed 36 vars, tightened 437 bounds.
Probing time = 0.00 sec. (1.23 ticks)
Tried aggregator 2 times.
MIP Presolve eliminated 670 rows and 92 columns.
MIP Presolve modified 165 coefficients.
Aggregator did 50 substitutions.
Reduced MIP has 1016 rows, 1275 columns, and 3290 nonzeros.
Reduced MIP has 370 binaries, 905 generals, 0 SOSs, and 0 indicators.
Presolve time = 0.01 sec. (4.05 ticks)
Probing time = 0.00 sec. (0.34 ticks)
Tried aggregator 1 time.
Detecting symmetries...
MIP Presolve modified 345 coefficients.
Reduced MIP has 1016 rows, 1275 columns, and 3290 nonzeros.
Reduced MIP has 389 binaries, 886 generals, 0 SOSs, and 0 indicators.
Presolve time = 0.01 sec. (2.52 ticks)
Probing time = 0.00 sec. (0.35 ticks)
Clique table members: 81.
MIP emphasis: balance optimality and feasibility.
MIP search method: dynamic search.
Parallel mode: deterministic, using up to 24 threads.
Root relaxation solution time = 0.01 sec. (4.71 ticks)

        Nodes                                         Cuts/
   Node  Left     Objective  IInf  Best Integer    Best Bound    ItCnt     Gap

*     0+    0                         2756.0000        0.0000           100.00%
      0     0        0.0000    48     2756.0000        0.0000      374  100.00%
      0     0        1.3094   293     2756.0000     Cuts: 180      706   99.95%
      0     0        2.2040   372     2756.0000     Cuts: 168     1021   99.92%
      0     0        2.6667   293     2756.0000     Cuts: 146     1147   99.90%
*     0+    0                           21.0000        2.6667            87.30%
      0     0        cutoff             21.0000       21.0000     1472    0.00%
Elapsed time = 0.52 sec. (109.92 ticks, tree = 0.01 MB, solutions = 2)

Clique cuts applied:  2
Cover cuts applied:  1
Implied bound cuts applied:  55
Flow cuts applied:  10
Mixed integer rounding cuts applied:  49
Zero-half cuts applied:  146
Lift and project cuts applied:  3
Gomory fractional cuts applied:  9

Root node processing (before b&c):
  Real time             =    0.52 sec. (110.02 ticks)
Parallel b&c, 24 threads:
  Real time             =    0.00 sec. (0.00 ticks)
  Sync time (average)   =    0.00 sec.
  Wait time (average)   =    0.00 sec.
                          ------------
Total (root+branch&cut) =    0.52 sec. (110.02 ticks)

Solution status = Optimal
Solution LB = 21
Solution UB = 21
Runtime = 0.52362 seconds
	Command being timed: "/home/min/git_repos/CS598MEBProject/CNT-ILP/build/cnt -s 2 ./output/k8_n20/simC_c1_k8_n20_u3_s2_del04.input-right.cnp"
	User time (seconds): 7.05
	System time (seconds): 0.09
	Percent of CPU this job got: 1304%
	Elapsed (wall clock) time (h:mm:ss or m:ss): 0:00.54
	Average shared text size (kbytes): 0
	Average unshared data size (kbytes): 0
	Average stack size (kbytes): 0
	Average total size (kbytes): 0
	Maximum resident set size (kbytes): 103676
	Average resident set size (kbytes): 0
	Major (requiring I/O) page faults: 0
	Minor (reclaiming a frame) page faults: 23118
	Voluntary context switches: 4766
	Involuntary context switches: 1000
	Swaps: 0
	File system inputs: 0
	File system outputs: 16
	Socket messages sent: 0
	Socket messages received: 0
	Signals delivered: 0
	Page size (bytes): 4096
	Exit status: 0
